c "64820.clq"
p edge 100 1344
e 1 17
e 1 19
e 1 20
e 1 21
e 1 22
e 1 24
e 1 27
e 1 29
e 1 32
e 1 33
e 1 35
e 1 37
e 1 38
e 1 42
e 1 46
e 1 54
e 1 68
e 1 69
e 1 71
e 1 72
e 1 78
e 1 82
e 1 83
e 1 85
e 1 95
e 1 99
e 2 17
e 2 18
e 2 19
e 2 21
e 2 22
e 2 24
e 2 25
e 2 28
e 2 29
e 2 32
e 2 34
e 2 36
e 2 38
e 2 42
e 2 46
e 2 47
e 2 50
e 2 54
e 2 65
e 2 78
e 2 87
e 2 88
e 2 91
e 3 17
e 3 18
e 3 19
e 3 20
e 3 22
e 3 23
e 3 26
e 3 33
e 3 38
e 3 50
e 3 58
e 3 62
e 3 73
e 3 82
e 4 17
e 4 18
e 4 19
e 4 20
e 4 21
e 4 22
e 4 25
e 4 26
e 4 27
e 4 28
e 4 30
e 4 32
e 4 33
e 4 34
e 4 36
e 4 37
e 4 38
e 4 39
e 4 41
e 4 44
e 4 45
e 4 49
e 4 50
e 4 54
e 4 55
e 4 56
e 4 60
e 4 62
e 4 65
e 4 67
e 4 71
e 4 72
e 4 77
e 4 79
e 4 88
e 4 90
e 4 98
e 4 100
e 5 17
e 5 18
e 5 19
e 5 20
e 5 25
e 5 31
e 5 36
e 5 39
e 5 47
e 5 50
e 5 52
e 5 55
e 5 56
e 5 59
e 5 62
e 5 76
e 5 78
e 5 87
e 5 88
e 5 91
e 5 95
e 6 17
e 6 18
e 6 19
e 6 20
e 6 21
e 6 22
e 6 23
e 6 24
e 6 25
e 6 27
e 6 28
e 6 35
e 6 36
e 6 41
e 6 45
e 6 47
e 6 48
e 6 52
e 6 54
e 6 56
e 6 57
e 6 58
e 6 67
e 6 71
e 6 72
e 6 89
e 7 17
e 7 18
e 7 19
e 7 20
e 7 21
e 7 29
e 7 30
e 7 34
e 7 38
e 7 50
e 7 57
e 7 59
e 7 60
e 7 64
e 7 66
e 7 68
e 7 69
e 7 79
e 7 88
e 7 92
e 8 17
e 8 18
e 8 19
e 8 20
e 8 21
e 8 22
e 8 23
e 8 24
e 8 25
e 8 27
e 8 28
e 8 29
e 8 31
e 8 32
e 8 37
e 8 41
e 8 42
e 8 43
e 8 45
e 8 47
e 8 49
e 8 50
e 8 52
e 8 55
e 8 58
e 8 59
e 8 61
e 8 70
e 8 79
e 8 80
e 8 83
e 8 84
e 8 86
e 8 87
e 8 89
e 8 98
e 9 17
e 9 18
e 9 19
e 9 20
e 9 21
e 9 23
e 9 24
e 9 25
e 9 26
e 9 29
e 9 31
e 9 39
e 9 42
e 9 43
e 9 48
e 9 50
e 9 52
e 9 61
e 9 69
e 9 72
e 9 73
e 9 74
e 9 87
e 9 89
e 9 92
e 9 95
e 10 17
e 10 18
e 10 20
e 10 21
e 10 22
e 10 23
e 10 24
e 10 25
e 10 28
e 10 30
e 10 32
e 10 34
e 10 36
e 10 37
e 10 43
e 10 47
e 10 70
e 10 74
e 10 94
e 10 95
e 10 97
e 10 100
e 11 17
e 11 18
e 11 19
e 11 20
e 11 22
e 11 23
e 11 24
e 11 25
e 11 26
e 11 27
e 11 29
e 11 31
e 11 38
e 11 39
e 11 45
e 11 49
e 11 59
e 11 62
e 11 64
e 11 71
e 11 77
e 11 81
e 11 94
e 11 99
e 11 100
e 12 17
e 12 18
e 12 19
e 12 21
e 12 22
e 12 25
e 12 30
e 12 43
e 12 46
e 12 60
e 12 63
e 12 75
e 12 90
e 13 17
e 13 18
e 13 19
e 13 20
e 13 21
e 13 23
e 13 28
e 13 29
e 13 30
e 13 31
e 13 32
e 13 33
e 13 35
e 13 38
e 13 39
e 13 40
e 13 42
e 13 45
e 13 49
e 13 51
e 13 55
e 13 59
e 13 62
e 13 63
e 13 67
e 13 80
e 13 85
e 13 91
e 13 98
e 14 17
e 14 18
e 14 19
e 14 20
e 14 22
e 14 23
e 14 24
e 14 26
e 14 29
e 14 30
e 14 31
e 14 32
e 14 33
e 14 37
e 14 38
e 14 40
e 14 41
e 14 48
e 14 50
e 14 51
e 14 57
e 14 60
e 14 64
e 14 70
e 14 79
e 14 93
e 14 94
e 15 17
e 15 18
e 15 19
e 15 20
e 15 21
e 15 22
e 15 23
e 15 24
e 15 25
e 15 26
e 15 27
e 15 31
e 15 34
e 15 35
e 15 37
e 15 40
e 15 43
e 15 51
e 15 53
e 15 55
e 15 58
e 15 61
e 15 64
e 15 75
e 15 83
e 15 88
e 15 92
e 16 17
e 16 18
e 16 21
e 16 23
e 16 25
e 16 26
e 16 33
e 16 37
e 16 44
e 16 45
e 16 47
e 16 48
e 16 51
e 16 58
e 16 66
e 16 75
e 16 82
e 16 84
e 16 100
e 17 18
e 17 19
e 17 20
e 17 21
e 17 22
e 17 23
e 17 24
e 17 25
e 17 26
e 17 27
e 17 28
e 17 29
e 17 30
e 17 31
e 17 32
e 17 33
e 17 35
e 17 36
e 17 37
e 17 39
e 17 40
e 17 41
e 17 42
e 17 43
e 17 44
e 17 45
e 17 48
e 17 49
e 17 51
e 17 54
e 17 55
e 17 56
e 17 57
e 17 58
e 17 61
e 17 63
e 17 64
e 17 65
e 17 68
e 17 69
e 17 70
e 17 73
e 17 74
e 17 82
e 17 83
e 17 88
e 17 89
e 17 90
e 17 93
e 17 94
e 17 96
e 17 99
e 17 100
e 18 19
e 18 20
e 18 21
e 18 22
e 18 23
e 18 24
e 18 25
e 18 26
e 18 27
e 18 28
e 18 29
e 18 30
e 18 32
e 18 34
e 18 35
e 18 36
e 18 37
e 18 38
e 18 39
e 18 44
e 18 45
e 18 51
e 18 53
e 18 54
e 18 60
e 18 65
e 18 66
e 18 72
e 18 75
e 18 76
e 18 79
e 18 81
e 18 83
e 18 92
e 18 95
e 19 20
e 19 21
e 19 22
e 19 23
e 19 24
e 19 26
e 19 27
e 19 28
e 19 30
e 19 31
e 19 32
e 19 33
e 19 35
e 19 36
e 19 38
e 19 39
e 19 40
e 19 41
e 19 42
e 19 43
e 19 46
e 19 47
e 19 49
e 19 50
e 19 54
e 19 59
e 19 60
e 19 63
e 19 65
e 19 68
e 19 73
e 19 75
e 19 78
e 19 81
e 19 84
e 19 96
e 20 21
e 20 22
e 20 23
e 20 24
e 20 26
e 20 27
e 20 28
e 20 29
e 20 32
e 20 33
e 20 34
e 20 36
e 20 37
e 20 38
e 20 39
e 20 41
e 20 42
e 20 43
e 20 44
e 20 45
e 20 47
e 20 51
e 20 53
e 20 55
e 20 56
e 20 57
e 20 58
e 20 59
e 20 60
e 20 62
e 20 63
e 20 67
e 20 71
e 20 72
e 20 73
e 20 76
e 20 78
e 20 86
e 20 100
e 21 22
e 21 23
e 21 24
e 21 25
e 21 26
e 21 27
e 21 28
e 21 29
e 21 30
e 21 31
e 21 32
e 21 33
e 21 34
e 21 35
e 21 36
e 21 38
e 21 39
e 21 43
e 21 44
e 21 45
e 21 46
e 21 48
e 21 50
e 21 51
e 21 52
e 21 55
e 21 56
e 21 59
e 21 61
e 21 66
e 21 68
e 21 71
e 21 72
e 21 73
e 21 74
e 21 77
e 21 79
e 21 81
e 21 82
e 21 83
e 21 84
e 21 86
e 21 88
e 21 90
e 21 97
e 21 98
e 21 99
e 21 100
e 22 23
e 22 24
e 22 25
e 22 26
e 22 27
e 22 28
e 22 29
e 22 30
e 22 31
e 22 32
e 22 34
e 22 35
e 22 38
e 22 39
e 22 44
e 22 45
e 22 47
e 22 52
e 22 53
e 22 55
e 22 56
e 22 57
e 22 59
e 22 67
e 22 70
e 22 74
e 22 77
e 22 80
e 22 81
e 22 82
e 22 91
e 22 94
e 22 97
e 23 24
e 23 25
e 23 26
e 23 27
e 23 28
e 23 30
e 23 32
e 23 33
e 23 36
e 23 37
e 23 41
e 23 46
e 23 48
e 23 50
e 23 51
e 23 56
e 23 63
e 23 64
e 23 72
e 23 73
e 23 74
e 23 78
e 23 85
e 23 89
e 24 26
e 24 27
e 24 28
e 24 29
e 24 30
e 24 32
e 24 33
e 24 34
e 24 35
e 24 36
e 24 38
e 24 39
e 24 41
e 24 45
e 24 47
e 24 48
e 24 52
e 24 54
e 24 55
e 24 56
e 24 57
e 24 58
e 24 59
e 24 62
e 24 66
e 24 74
e 24 77
e 24 83
e 24 86
e 24 96
e 24 97
e 24 100
e 25 26
e 25 27
e 25 28
e 25 30
e 25 31
e 25 33
e 25 35
e 25 41
e 25 43
e 25 44
e 25 48
e 25 50
e 25 52
e 25 53
e 25 57
e 25 59
e 25 60
e 25 61
e 25 62
e 25 69
e 25 71
e 25 73
e 25 80
e 25 84
e 25 88
e 25 91
e 25 92
e 25 93
e 26 27
e 26 30
e 26 31
e 26 33
e 26 34
e 26 40
e 26 46
e 26 47
e 26 53
e 26 54
e 26 57
e 26 58
e 26 59
e 26 62
e 26 63
e 26 65
e 26 70
e 26 76
e 26 78
e 26 80
e 26 87
e 26 90
e 26 93
e 26 95
e 27 28
e 27 29
e 27 31
e 27 32
e 27 33
e 27 34
e 27 36
e 27 40
e 27 41
e 27 43
e 27 44
e 27 46
e 27 47
e 27 50
e 27 52
e 27 54
e 27 57
e 27 58
e 27 59
e 27 60
e 27 61
e 27 64
e 27 66
e 27 73
e 27 74
e 27 75
e 27 76
e 27 79
e 27 81
e 27 82
e 27 84
e 27 87
e 27 89
e 27 90
e 27 91
e 27 97
e 27 99
e 28 29
e 28 31
e 28 35
e 28 36
e 28 37
e 28 38
e 28 39
e 28 40
e 28 42
e 28 43
e 28 44
e 28 45
e 28 46
e 28 48
e 28 49
e 28 51
e 28 52
e 28 53
e 28 56
e 28 57
e 28 58
e 28 61
e 28 62
e 28 65
e 28 69
e 28 71
e 28 77
e 28 80
e 28 81
e 28 82
e 28 83
e 28 84
e 28 85
e 28 86
e 28 87
e 28 89
e 28 91
e 28 92
e 28 97
e 29 30
e 29 31
e 29 36
e 29 40
e 29 41
e 29 43
e 29 45
e 29 51
e 29 53
e 29 56
e 29 57
e 29 61
e 29 66
e 29 70
e 29 79
e 29 90
e 29 95
e 29 96
e 29 98
e 29 99
e 29 100
e 30 34
e 30 35
e 30 36
e 30 37
e 30 46
e 30 48
e 30 49
e 30 55
e 30 56
e 30 63
e 30 71
e 30 72
e 30 75
e 30 76
e 30 77
e 30 80
e 30 96
e 31 34
e 31 35
e 31 37
e 31 40
e 31 42
e 31 43
e 31 49
e 31 54
e 31 55
e 31 62
e 31 73
e 31 74
e 31 78
e 31 79
e 31 80
e 31 89
e 31 90
e 31 98
e 32 33
e 32 34
e 32 35
e 32 39
e 32 40
e 32 41
e 32 42
e 32 44
e 32 46
e 32 62
e 32 65
e 32 68
e 32 93
e 32 94
e 33 34
e 33 40
e 33 42
e 33 55
e 33 57
e 33 60
e 33 62
e 33 64
e 33 67
e 33 75
e 33 77
e 33 78
e 33 81
e 33 86
e 33 90
e 33 91
e 33 97
e 33 98
e 34 35
e 34 39
e 34 40
e 34 42
e 34 43
e 34 44
e 34 45
e 34 49
e 34 51
e 34 60
e 34 61
e 34 66
e 34 68
e 34 71
e 34 72
e 34 82
e 34 84
e 34 98
e 35 37
e 35 41
e 35 42
e 35 43
e 35 44
e 35 45
e 35 47
e 35 48
e 35 52
e 35 53
e 35 58
e 35 60
e 35 63
e 35 65
e 35 69
e 35 70
e 35 75
e 35 76
e 35 77
e 35 92
e 35 97
e 35 99
e 35 100
e 36 37
e 36 38
e 36 40
e 36 41
e 36 42
e 36 46
e 36 51
e 36 54
e 36 66
e 36 69
e 36 72
e 36 74
e 36 78
e 36 83
e 36 87
e 36 89
e 36 95
e 36 96
e 37 39
e 37 40
e 37 47
e 37 49
e 37 52
e 37 53
e 37 55
e 37 60
e 37 61
e 37 66
e 37 69
e 37 74
e 37 78
e 37 79
e 37 81
e 37 89
e 37 94
e 37 96
e 37 97
e 37 98
e 38 44
e 38 46
e 38 50
e 38 65
e 38 66
e 38 70
e 38 71
e 38 73
e 38 75
e 38 76
e 38 80
e 38 86
e 38 99
e 39 40
e 39 41
e 39 42
e 39 48
e 39 49
e 39 50
e 39 52
e 39 55
e 39 60
e 39 61
e 39 66
e 39 67
e 39 68
e 39 70
e 39 72
e 39 81
e 39 87
e 39 90
e 39 91
e 39 95
e 39 96
e 39 99
e 40 44
e 40 47
e 40 48
e 40 53
e 40 60
e 40 63
e 40 64
e 40 69
e 40 72
e 40 76
e 40 86
e 40 88
e 40 94
e 40 96
e 40 99
e 41 48
e 41 49
e 41 51
e 41 52
e 41 61
e 41 62
e 41 64
e 41 70
e 41 72
e 41 75
e 41 79
e 41 80
e 41 81
e 41 92
e 41 93
e 41 99
e 42 44
e 42 46
e 42 51
e 42 64
e 42 78
e 42 79
e 42 82
e 42 91
e 42 92
e 42 94
e 42 95
e 43 46
e 43 50
e 43 53
e 43 54
e 43 55
e 43 66
e 43 67
e 43 77
e 43 78
e 43 81
e 43 83
e 43 91
e 43 94
e 44 46
e 44 48
e 44 49
e 44 56
e 44 62
e 44 67
e 44 69
e 44 72
e 44 77
e 44 85
e 44 86
e 44 95
e 44 98
e 45 51
e 45 53
e 45 61
e 45 64
e 45 69
e 45 76
e 45 78
e 45 80
e 45 85
e 45 91
e 46 47
e 46 53
e 46 57
e 46 58
e 46 59
e 46 76
e 46 81
e 46 87
e 46 89
e 46 90
e 46 93
e 46 97
e 47 49
e 47 52
e 47 56
e 47 58
e 47 61
e 47 63
e 47 68
e 47 78
e 47 87
e 47 92
e 48 49
e 48 60
e 48 71
e 48 86
e 48 93
e 48 98
e 49 54
e 49 63
e 49 70
e 49 75
e 49 79
e 49 85
e 49 86
e 50 57
e 50 58
e 50 62
e 50 64
e 50 70
e 50 71
e 50 79
e 50 85
e 50 87
e 50 89
e 50 92
e 50 94
e 50 97
e 50 100
e 51 52
e 51 53
e 51 54
e 51 65
e 51 66
e 51 67
e 51 68
e 51 69
e 51 73
e 51 76
e 51 80
e 51 81
e 51 82
e 51 86
e 51 87
e 51 90
e 51 92
e 51 98
e 52 53
e 52 54
e 52 56
e 52 57
e 52 63
e 52 67
e 52 69
e 52 71
e 52 72
e 52 76
e 52 77
e 52 82
e 52 87
e 52 88
e 52 90
e 52 99
e 52 100
e 53 56
e 53 65
e 54 74
e 54 79
e 54 80
e 54 84
e 54 88
e 55 64
e 55 65
e 55 69
e 55 73
e 55 75
e 55 76
e 55 77
e 55 88
e 55 92
e 55 95
e 56 59
e 56 63
e 56 73
e 56 74
e 56 75
e 56 85
e 56 88
e 56 92
e 56 97
e 56 98
e 57 58
e 57 59
e 57 65
e 57 74
e 57 75
e 57 77
e 57 83
e 57 84
e 57 85
e 57 88
e 57 97
e 57 98
e 58 63
e 58 65
e 58 68
e 58 70
e 58 71
e 58 82
e 58 83
e 58 89
e 58 94
e 58 97
e 59 61
e 59 64
e 59 66
e 59 67
e 59 68
e 59 83
e 59 94
e 60 68
e 60 69
e 60 70
e 60 85
e 60 90
e 60 97
e 61 63
e 61 66
e 61 67
e 61 68
e 61 71
e 61 84
e 61 85
e 61 86
e 61 99
e 62 64
e 62 65
e 62 73
e 62 87
e 62 90
e 63 77
e 63 82
e 63 86
e 64 67
e 64 68
e 64 70
e 64 80
e 64 85
e 64 88
e 64 94
e 65 67
e 65 68
e 65 75
e 65 79
e 65 87
e 65 93
e 65 96
e 66 67
e 66 82
e 66 86
e 66 91
e 66 96
e 66 100
e 67 74
e 67 77
e 68 84
e 68 96
e 69 74
e 69 86
e 69 92
e 69 93
e 70 92
e 70 97
e 71 73
e 71 80
e 71 89
e 71 95
e 72 76
e 72 80
e 72 81
e 72 88
e 72 91
e 72 93
e 73 78
e 73 81
e 73 82
e 73 83
e 73 85
e 73 95
e 73 96
e 73 98
e 74 76
e 74 84
e 75 83
e 75 91
e 76 83
e 76 98
e 78 84
e 79 89
e 80 99
e 81 94
e 81 100
e 82 84
e 82 85
e 83 84
e 83 85
e 84 91
e 84 93
e 84 95
e 85 93
e 85 96
e 87 90
e 88 89
e 89 93
e 89 96
e 89 99
e 90 93
e 91 93
e 91 96
e 92 94
e 92 100
e 94 95
e 94 100
e 98 99
